2 28
1898 440 22507 270 14148 3100 4650 30800 615 4975 1160 4225 510 11880 479 440 490 330 110 560 24355 2885 11748 4550 750 3720 1950 10500
600 600
45 5 85 150 65 95 30 12 170 20 40 25 20 3 7 25 12 22 25 9 165 2 85 15 9 2 4 100
30 20 125 5 80 25 35 73 12 15 15 40 5 10 10 12 10 9 10 20 60 40 50 36 49 40 19 150
